% Generated by MiniZinc 2.9.3
% Solver library: /home/icwmmarijnisse/MiniZincIDE-2.9.3-bundle-linux-x86_64/share/minizinc/linear
% Command line invocation: minizinc --compile --fzn ./instance.fzn --ozn ./instance.ozn --solver linear-solver ../../../../benchmarks/models/linear/instances/rcpsp_smaller.mzn ../../../../benchmarks/models/linear/instances/la36_x2.dzn 

array [1..2] of int: X_INTRODUCED_469_ = [1,-1];
var 0..23477: X_INTRODUCED_16_;
var 0..23477: X_INTRODUCED_17_;
var 0..23477: X_INTRODUCED_18_;
var 0..23477: X_INTRODUCED_19_;
var 0..23477: X_INTRODUCED_20_;
var 0..23477: X_INTRODUCED_21_;
var 0..23477: X_INTRODUCED_22_;
var 0..23477: X_INTRODUCED_23_;
var 0..23477: X_INTRODUCED_24_;
var 0..23477: X_INTRODUCED_25_;
var 0..23477: X_INTRODUCED_26_;
var 0..23477: X_INTRODUCED_27_;
var 0..23477: X_INTRODUCED_28_;
var 0..23477: X_INTRODUCED_29_;
var 0..23477: X_INTRODUCED_30_;
var 0..23477: X_INTRODUCED_31_;
var 0..23477: X_INTRODUCED_32_;
var 0..23477: X_INTRODUCED_33_;
var 0..23477: X_INTRODUCED_34_;
var 0..23477: X_INTRODUCED_35_;
var 0..23477: X_INTRODUCED_36_;
var 0..23477: X_INTRODUCED_37_;
var 0..23477: X_INTRODUCED_38_;
var 0..23477: X_INTRODUCED_39_;
var 0..23477: X_INTRODUCED_40_;
var 0..23477: X_INTRODUCED_41_;
var 0..23477: X_INTRODUCED_42_;
var 0..23477: X_INTRODUCED_43_;
var 0..23477: X_INTRODUCED_44_;
var 0..23477: X_INTRODUCED_45_;
var 0..23477: X_INTRODUCED_46_;
var 0..23477: X_INTRODUCED_47_;
var 0..23477: X_INTRODUCED_48_;
var 0..23477: X_INTRODUCED_49_;
var 0..23477: X_INTRODUCED_50_;
var 0..23477: X_INTRODUCED_51_;
var 0..23477: X_INTRODUCED_52_;
var 0..23477: X_INTRODUCED_53_;
var 0..23477: X_INTRODUCED_54_;
var 0..23477: X_INTRODUCED_55_;
var 0..23477: X_INTRODUCED_56_;
var 0..23477: X_INTRODUCED_57_;
var 0..23477: X_INTRODUCED_58_;
var 0..23477: X_INTRODUCED_59_;
var 0..23477: X_INTRODUCED_60_;
var 0..23477: X_INTRODUCED_61_;
var 0..23477: X_INTRODUCED_62_;
var 0..23477: X_INTRODUCED_63_;
var 0..23477: X_INTRODUCED_64_;
var 0..23477: X_INTRODUCED_65_;
var 0..23477: X_INTRODUCED_66_;
var 0..23477: X_INTRODUCED_67_;
var 0..23477: X_INTRODUCED_68_;
var 0..23477: X_INTRODUCED_69_;
var 0..23477: X_INTRODUCED_70_;
var 0..23477: X_INTRODUCED_71_;
var 0..23477: X_INTRODUCED_72_;
var 0..23477: X_INTRODUCED_73_;
var 0..23477: X_INTRODUCED_74_;
var 0..23477: X_INTRODUCED_75_;
var 0..23477: X_INTRODUCED_76_;
var 0..23477: X_INTRODUCED_77_;
var 0..23477: X_INTRODUCED_78_;
var 0..23477: X_INTRODUCED_79_;
var 0..23477: X_INTRODUCED_80_;
var 0..23477: X_INTRODUCED_81_;
var 0..23477: X_INTRODUCED_82_;
var 0..23477: X_INTRODUCED_83_;
var 0..23477: X_INTRODUCED_84_;
var 0..23477: X_INTRODUCED_85_;
var 0..23477: X_INTRODUCED_86_;
var 0..23477: X_INTRODUCED_87_;
var 0..23477: X_INTRODUCED_88_;
var 0..23477: X_INTRODUCED_89_;
var 0..23477: X_INTRODUCED_90_;
var 0..23477: X_INTRODUCED_91_;
var 0..23477: X_INTRODUCED_92_;
var 0..23477: X_INTRODUCED_93_;
var 0..23477: X_INTRODUCED_94_;
var 0..23477: X_INTRODUCED_95_;
var 0..23477: X_INTRODUCED_96_;
var 0..23477: X_INTRODUCED_97_;
var 0..23477: X_INTRODUCED_98_;
var 0..23477: X_INTRODUCED_99_;
var 0..23477: X_INTRODUCED_100_;
var 0..23477: X_INTRODUCED_101_;
var 0..23477: X_INTRODUCED_102_;
var 0..23477: X_INTRODUCED_103_;
var 0..23477: X_INTRODUCED_104_;
var 0..23477: X_INTRODUCED_105_;
var 0..23477: X_INTRODUCED_106_;
var 0..23477: X_INTRODUCED_107_;
var 0..23477: X_INTRODUCED_108_;
var 0..23477: X_INTRODUCED_109_;
var 0..23477: X_INTRODUCED_110_;
var 0..23477: X_INTRODUCED_111_;
var 0..23477: X_INTRODUCED_112_;
var 0..23477: X_INTRODUCED_113_;
var 0..23477: X_INTRODUCED_114_;
var 0..23477: X_INTRODUCED_115_;
var 0..23477: X_INTRODUCED_116_;
var 0..23477: X_INTRODUCED_117_;
var 0..23477: X_INTRODUCED_118_;
var 0..23477: X_INTRODUCED_119_;
var 0..23477: X_INTRODUCED_120_;
var 0..23477: X_INTRODUCED_121_;
var 0..23477: X_INTRODUCED_122_;
var 0..23477: X_INTRODUCED_123_;
var 0..23477: X_INTRODUCED_124_;
var 0..23477: X_INTRODUCED_125_;
var 0..23477: X_INTRODUCED_126_;
var 0..23477: X_INTRODUCED_127_;
var 0..23477: X_INTRODUCED_128_;
var 0..23477: X_INTRODUCED_129_;
var 0..23477: X_INTRODUCED_130_;
var 0..23477: X_INTRODUCED_131_;
var 0..23477: X_INTRODUCED_132_;
var 0..23477: X_INTRODUCED_133_;
var 0..23477: X_INTRODUCED_134_;
var 0..23477: X_INTRODUCED_135_;
var 0..23477: X_INTRODUCED_136_;
var 0..23477: X_INTRODUCED_137_;
var 0..23477: X_INTRODUCED_138_;
var 0..23477: X_INTRODUCED_139_;
var 0..23477: X_INTRODUCED_140_;
var 0..23477: X_INTRODUCED_141_;
var 0..23477: X_INTRODUCED_142_;
var 0..23477: X_INTRODUCED_143_;
var 0..23477: X_INTRODUCED_144_;
var 0..23477: X_INTRODUCED_145_;
var 0..23477: X_INTRODUCED_146_;
var 0..23477: X_INTRODUCED_147_;
var 0..23477: X_INTRODUCED_148_;
var 0..23477: X_INTRODUCED_149_;
var 0..23477: X_INTRODUCED_150_;
var 0..23477: X_INTRODUCED_151_;
var 0..23477: X_INTRODUCED_152_;
var 0..23477: X_INTRODUCED_153_;
var 0..23477: X_INTRODUCED_154_;
var 0..23477: X_INTRODUCED_155_;
var 0..23477: X_INTRODUCED_156_;
var 0..23477: X_INTRODUCED_157_;
var 0..23477: X_INTRODUCED_158_;
var 0..23477: X_INTRODUCED_159_;
var 0..23477: X_INTRODUCED_160_;
var 0..23477: X_INTRODUCED_161_;
var 0..23477: X_INTRODUCED_162_;
var 0..23477: X_INTRODUCED_163_;
var 0..23477: X_INTRODUCED_164_;
var 0..23477: X_INTRODUCED_165_;
var 0..23477: X_INTRODUCED_166_;
var 0..23477: X_INTRODUCED_167_;
var 0..23477: X_INTRODUCED_168_;
var 0..23477: X_INTRODUCED_169_;
var 0..23477: X_INTRODUCED_170_;
var 0..23477: X_INTRODUCED_171_;
var 0..23477: X_INTRODUCED_172_;
var 0..23477: X_INTRODUCED_173_;
var 0..23477: X_INTRODUCED_174_;
var 0..23477: X_INTRODUCED_175_;
var 0..23477: X_INTRODUCED_176_;
var 0..23477: X_INTRODUCED_177_;
var 0..23477: X_INTRODUCED_178_;
var 0..23477: X_INTRODUCED_179_;
var 0..23477: X_INTRODUCED_180_;
var 0..23477: X_INTRODUCED_181_;
var 0..23477: X_INTRODUCED_182_;
var 0..23477: X_INTRODUCED_183_;
var 0..23477: X_INTRODUCED_184_;
var 0..23477: X_INTRODUCED_185_;
var 0..23477: X_INTRODUCED_186_;
var 0..23477: X_INTRODUCED_187_;
var 0..23477: X_INTRODUCED_188_;
var 0..23477: X_INTRODUCED_189_;
var 0..23477: X_INTRODUCED_190_;
var 0..23477: X_INTRODUCED_191_;
var 0..23477: X_INTRODUCED_192_;
var 0..23477: X_INTRODUCED_193_;
var 0..23477: X_INTRODUCED_194_;
var 0..23477: X_INTRODUCED_195_;
var 0..23477: X_INTRODUCED_196_;
var 0..23477: X_INTRODUCED_197_;
var 0..23477: X_INTRODUCED_198_;
var 0..23477: X_INTRODUCED_199_;
var 0..23477: X_INTRODUCED_200_;
var 0..23477: X_INTRODUCED_201_;
var 0..23477: X_INTRODUCED_202_;
var 0..23477: X_INTRODUCED_203_;
var 0..23477: X_INTRODUCED_204_;
var 0..23477: X_INTRODUCED_205_;
var 0..23477: X_INTRODUCED_206_;
var 0..23477: X_INTRODUCED_207_;
var 0..23477: X_INTRODUCED_208_;
var 0..23477: X_INTRODUCED_209_;
var 0..23477: X_INTRODUCED_210_;
var 0..23477: X_INTRODUCED_211_;
var 0..23477: X_INTRODUCED_212_;
var 0..23477: X_INTRODUCED_213_;
var 0..23477: X_INTRODUCED_214_;
var 0..23477: X_INTRODUCED_215_;
var 0..23477: X_INTRODUCED_216_;
var 0..23477: X_INTRODUCED_217_;
var 0..23477: X_INTRODUCED_218_;
var 0..23477: X_INTRODUCED_219_;
var 0..23477: X_INTRODUCED_220_;
var 0..23477: X_INTRODUCED_221_;
var 0..23477: X_INTRODUCED_222_;
var 0..23477: X_INTRODUCED_223_;
var 0..23477: X_INTRODUCED_224_;
var 0..23477: X_INTRODUCED_225_;
var 0..23477: X_INTRODUCED_226_;
var 0..23477: X_INTRODUCED_227_;
var 0..23477: X_INTRODUCED_228_;
var 0..23477: X_INTRODUCED_229_;
var 0..23477: X_INTRODUCED_230_;
var 0..23477: X_INTRODUCED_231_;
var 0..23477: X_INTRODUCED_232_;
var 0..23477: X_INTRODUCED_233_;
var 0..23477: X_INTRODUCED_234_;
var 0..23477: X_INTRODUCED_235_;
var 0..23477: X_INTRODUCED_236_;
var 0..23477: X_INTRODUCED_237_;
var 0..23477: X_INTRODUCED_238_;
var 0..23477: X_INTRODUCED_239_;
var 0..23477: X_INTRODUCED_240_;
var 0..23477: X_INTRODUCED_241_;
var 0..23477: X_INTRODUCED_242_;
var 0..23477: X_INTRODUCED_243_;
var 0..23477: X_INTRODUCED_244_;
var 0..23477: X_INTRODUCED_245_;
var 0..23477: X_INTRODUCED_246_;
var 0..23477: X_INTRODUCED_247_;
var 0..23477: X_INTRODUCED_248_;
var 0..23477: X_INTRODUCED_249_;
var 0..23477: X_INTRODUCED_250_;
var 0..23477: X_INTRODUCED_251_;
var 0..23477: X_INTRODUCED_252_;
var 0..23477: X_INTRODUCED_253_;
var 0..23477: X_INTRODUCED_254_;
var 0..23477: X_INTRODUCED_255_;
var 0..23477: X_INTRODUCED_256_;
var 0..23477: X_INTRODUCED_257_;
var 0..23477: X_INTRODUCED_258_;
var 0..23477: X_INTRODUCED_259_;
var 0..23477: X_INTRODUCED_260_;
var 0..23477: X_INTRODUCED_261_;
var 0..23477: X_INTRODUCED_262_;
var 0..23477: X_INTRODUCED_263_;
var 0..23477: X_INTRODUCED_264_;
var 0..23477: X_INTRODUCED_265_;
var 0..23477: X_INTRODUCED_266_;
var 0..23477: X_INTRODUCED_267_;
var 0..23477: X_INTRODUCED_268_;
var 0..23477: X_INTRODUCED_269_;
var 0..23477: X_INTRODUCED_270_;
var 0..23477: X_INTRODUCED_271_;
var 0..23477: X_INTRODUCED_272_;
var 0..23477: X_INTRODUCED_273_;
var 0..23477: X_INTRODUCED_274_;
var 0..23477: X_INTRODUCED_275_;
var 0..23477: X_INTRODUCED_276_;
var 0..23477: X_INTRODUCED_277_;
var 0..23477: X_INTRODUCED_278_;
var 0..23477: X_INTRODUCED_279_;
var 0..23477: X_INTRODUCED_280_;
var 0..23477: X_INTRODUCED_281_;
var 0..23477: X_INTRODUCED_282_;
var 0..23477: X_INTRODUCED_283_;
var 0..23477: X_INTRODUCED_284_;
var 0..23477: X_INTRODUCED_285_;
var 0..23477: X_INTRODUCED_286_;
var 0..23477: X_INTRODUCED_287_;
var 0..23477: X_INTRODUCED_288_;
var 0..23477: X_INTRODUCED_289_;
var 0..23477: X_INTRODUCED_290_;
var 0..23477: X_INTRODUCED_291_;
var 0..23477: X_INTRODUCED_292_;
var 0..23477: X_INTRODUCED_293_;
var 0..23477: X_INTRODUCED_294_;
var 0..23477: X_INTRODUCED_295_;
var 0..23477: X_INTRODUCED_296_;
var 0..23477: X_INTRODUCED_297_;
var 0..23477: X_INTRODUCED_298_;
var 0..23477: X_INTRODUCED_299_;
var 0..23477: X_INTRODUCED_300_;
var 0..23477: X_INTRODUCED_301_;
var 0..23477: X_INTRODUCED_302_;
var 0..23477: X_INTRODUCED_303_;
var 0..23477: X_INTRODUCED_304_;
var 0..23477: X_INTRODUCED_305_;
var 0..23477: X_INTRODUCED_306_;
var 0..23477: X_INTRODUCED_307_;
var 0..23477: X_INTRODUCED_308_;
var 0..23477: X_INTRODUCED_309_;
var 0..23477: X_INTRODUCED_310_;
var 0..23477: X_INTRODUCED_311_;
var 0..23477: X_INTRODUCED_312_;
var 0..23477: X_INTRODUCED_313_;
var 0..23477: X_INTRODUCED_314_;
var 0..23477: X_INTRODUCED_315_;
var 0..23477: X_INTRODUCED_316_;
var 0..23477: X_INTRODUCED_317_;
var 0..23477: X_INTRODUCED_318_;
var 0..23477: X_INTRODUCED_319_;
var 0..23477: X_INTRODUCED_320_;
var 0..23477: X_INTRODUCED_321_;
var 0..23477: X_INTRODUCED_322_;
var 0..23477: X_INTRODUCED_323_;
var 0..23477: X_INTRODUCED_324_;
var 0..23477: X_INTRODUCED_325_;
var 0..23477: X_INTRODUCED_326_;
var 0..23477: X_INTRODUCED_327_;
var 0..23477: X_INTRODUCED_328_;
var 0..23477: X_INTRODUCED_329_;
var 0..23477: X_INTRODUCED_330_;
var 0..23477: X_INTRODUCED_331_;
var 0..23477: X_INTRODUCED_332_;
var 0..23477: X_INTRODUCED_333_;
var 0..23477: X_INTRODUCED_334_;
var 0..23477: X_INTRODUCED_335_;
var 0..23477: X_INTRODUCED_336_;
var 0..23477: X_INTRODUCED_337_;
var 0..23477: X_INTRODUCED_338_;
var 0..23477: X_INTRODUCED_339_;
var 0..23477: X_INTRODUCED_340_;
var 0..23477: X_INTRODUCED_341_;
var 0..23477: X_INTRODUCED_342_;
var 0..23477: X_INTRODUCED_343_;
var 0..23477: X_INTRODUCED_344_;
var 0..23477: X_INTRODUCED_345_;
var 0..23477: X_INTRODUCED_346_;
var 0..23477: X_INTRODUCED_347_;
var 0..23477: X_INTRODUCED_348_;
var 0..23477: X_INTRODUCED_349_;
var 0..23477: X_INTRODUCED_350_;
var 0..23477: X_INTRODUCED_351_;
var 0..23477: X_INTRODUCED_352_;
var 0..23477: X_INTRODUCED_353_;
var 0..23477: X_INTRODUCED_354_;
var 0..23477: X_INTRODUCED_355_;
var 0..23477: X_INTRODUCED_356_;
var 0..23477: X_INTRODUCED_357_;
var 0..23477: X_INTRODUCED_358_;
var 0..23477: X_INTRODUCED_359_;
var 0..23477: X_INTRODUCED_360_;
var 0..23477: X_INTRODUCED_361_;
var 0..23477: X_INTRODUCED_362_;
var 0..23477: X_INTRODUCED_363_;
var 0..23477: X_INTRODUCED_364_;
var 0..23477: X_INTRODUCED_365_;
var 0..23477: X_INTRODUCED_366_;
var 0..23477: X_INTRODUCED_367_;
var 0..23477: X_INTRODUCED_368_;
var 0..23477: X_INTRODUCED_369_;
var 0..23477: X_INTRODUCED_370_;
var 0..23477: X_INTRODUCED_371_;
var 0..23477: X_INTRODUCED_372_;
var 0..23477: X_INTRODUCED_373_;
var 0..23477: X_INTRODUCED_374_;
var 0..23477: X_INTRODUCED_375_;
var 0..23477: X_INTRODUCED_376_;
var 0..23477: X_INTRODUCED_377_;
var 0..23477: X_INTRODUCED_378_;
var 0..23477: X_INTRODUCED_379_;
var 0..23477: X_INTRODUCED_380_;
var 0..23477: X_INTRODUCED_381_;
var 0..23477: X_INTRODUCED_382_;
var 0..23477: X_INTRODUCED_383_;
var 0..23477: X_INTRODUCED_384_;
var 0..23477: X_INTRODUCED_385_;
var 0..23477: X_INTRODUCED_386_;
var 0..23477: X_INTRODUCED_387_;
var 0..23477: X_INTRODUCED_388_;
var 0..23477: X_INTRODUCED_389_;
var 0..23477: X_INTRODUCED_390_;
var 0..23477: X_INTRODUCED_391_;
var 0..23477: X_INTRODUCED_392_;
var 0..23477: X_INTRODUCED_393_;
var 0..23477: X_INTRODUCED_394_;
var 0..23477: X_INTRODUCED_395_;
var 0..23477: X_INTRODUCED_396_;
var 0..23477: X_INTRODUCED_397_;
var 0..23477: X_INTRODUCED_398_;
var 0..23477: X_INTRODUCED_399_;
var 0..23477: X_INTRODUCED_400_;
var 0..23477: X_INTRODUCED_401_;
var 0..23477: X_INTRODUCED_402_;
var 0..23477: X_INTRODUCED_403_;
var 0..23477: X_INTRODUCED_404_;
var 0..23477: X_INTRODUCED_405_;
var 0..23477: X_INTRODUCED_406_;
var 0..23477: X_INTRODUCED_407_;
var 0..23477: X_INTRODUCED_408_;
var 0..23477: X_INTRODUCED_409_;
var 0..23477: X_INTRODUCED_410_;
var 0..23477: X_INTRODUCED_411_;
var 0..23477: X_INTRODUCED_412_;
var 0..23477: X_INTRODUCED_413_;
var 0..23477: X_INTRODUCED_414_;
var 0..23477: X_INTRODUCED_415_;
var 0..23477: X_INTRODUCED_416_;
var 0..23477: X_INTRODUCED_417_;
var 0..23477: X_INTRODUCED_418_;
var 0..23477: X_INTRODUCED_419_;
var 0..23477: X_INTRODUCED_420_;
var 0..23477: X_INTRODUCED_421_;
var 0..23477: X_INTRODUCED_422_;
var 0..23477: X_INTRODUCED_423_;
var 0..23477: X_INTRODUCED_424_;
var 0..23477: X_INTRODUCED_425_;
var 0..23477: X_INTRODUCED_426_;
var 0..23477: X_INTRODUCED_427_;
var 0..23477: X_INTRODUCED_428_;
var 0..23477: X_INTRODUCED_429_;
var 0..23477: X_INTRODUCED_430_;
var 0..23477: X_INTRODUCED_431_;
var 0..23477: X_INTRODUCED_432_;
var 0..23477: X_INTRODUCED_433_;
var 0..23477: X_INTRODUCED_434_;
var 0..23477: X_INTRODUCED_435_;
var 0..23477: X_INTRODUCED_436_;
var 0..23477: X_INTRODUCED_437_;
var 0..23477: X_INTRODUCED_438_;
var 0..23477: X_INTRODUCED_439_;
var 0..23477: X_INTRODUCED_440_;
var 0..23477: X_INTRODUCED_441_;
var 0..23477: X_INTRODUCED_442_;
var 0..23477: X_INTRODUCED_443_;
var 0..23477: X_INTRODUCED_444_;
var 0..23477: X_INTRODUCED_445_;
var 0..23477: X_INTRODUCED_446_;
var 0..23477: X_INTRODUCED_447_;
var 0..23477: X_INTRODUCED_448_;
var 0..23477: X_INTRODUCED_449_;
var 0..23477: X_INTRODUCED_450_;
var 0..23477: X_INTRODUCED_451_;
var 0..23477: X_INTRODUCED_452_;
var 0..23477: X_INTRODUCED_453_;
var 0..23477: X_INTRODUCED_454_;
var 0..23477: X_INTRODUCED_455_;
var 0..23477: X_INTRODUCED_456_;
var 0..23477: X_INTRODUCED_457_;
var 0..23477: X_INTRODUCED_458_;
var 0..23477: X_INTRODUCED_459_;
var 0..23477: X_INTRODUCED_460_;
var 0..23477: X_INTRODUCED_461_;
var 0..23477: X_INTRODUCED_462_;
var 0..23477: X_INTRODUCED_463_;
var 0..23477: X_INTRODUCED_464_;
var 0..23477: X_INTRODUCED_465_;
var 0..23478: Objective:: output_var;
array [1..450] of var int: Start:: output_array([1..450]) = [X_INTRODUCED_16_,X_INTRODUCED_17_,X_INTRODUCED_18_,X_INTRODUCED_19_,X_INTRODUCED_20_,X_INTRODUCED_21_,X_INTRODUCED_22_,X_INTRODUCED_23_,X_INTRODUCED_24_,X_INTRODUCED_25_,X_INTRODUCED_26_,X_INTRODUCED_27_,X_INTRODUCED_28_,X_INTRODUCED_29_,X_INTRODUCED_30_,X_INTRODUCED_31_,X_INTRODUCED_32_,X_INTRODUCED_33_,X_INTRODUCED_34_,X_INTRODUCED_35_,X_INTRODUCED_36_,X_INTRODUCED_37_,X_INTRODUCED_38_,X_INTRODUCED_39_,X_INTRODUCED_40_,X_INTRODUCED_41_,X_INTRODUCED_42_,X_INTRODUCED_43_,X_INTRODUCED_44_,X_INTRODUCED_45_,X_INTRODUCED_46_,X_INTRODUCED_47_,X_INTRODUCED_48_,X_INTRODUCED_49_,X_INTRODUCED_50_,X_INTRODUCED_51_,X_INTRODUCED_52_,X_INTRODUCED_53_,X_INTRODUCED_54_,X_INTRODUCED_55_,X_INTRODUCED_56_,X_INTRODUCED_57_,X_INTRODUCED_58_,X_INTRODUCED_59_,X_INTRODUCED_60_,X_INTRODUCED_61_,X_INTRODUCED_62_,X_INTRODUCED_63_,X_INTRODUCED_64_,X_INTRODUCED_65_,X_INTRODUCED_66_,X_INTRODUCED_67_,X_INTRODUCED_68_,X_INTRODUCED_69_,X_INTRODUCED_70_,X_INTRODUCED_71_,X_INTRODUCED_72_,X_INTRODUCED_73_,X_INTRODUCED_74_,X_INTRODUCED_75_,X_INTRODUCED_76_,X_INTRODUCED_77_,X_INTRODUCED_78_,X_INTRODUCED_79_,X_INTRODUCED_80_,X_INTRODUCED_81_,X_INTRODUCED_82_,X_INTRODUCED_83_,X_INTRODUCED_84_,X_INTRODUCED_85_,X_INTRODUCED_86_,X_INTRODUCED_87_,X_INTRODUCED_88_,X_INTRODUCED_89_,X_INTRODUCED_90_,X_INTRODUCED_91_,X_INTRODUCED_92_,X_INTRODUCED_93_,X_INTRODUCED_94_,X_INTRODUCED_95_,X_INTRODUCED_96_,X_INTRODUCED_97_,X_INTRODUCED_98_,X_INTRODUCED_99_,X_INTRODUCED_100_,X_INTRODUCED_101_,X_INTRODUCED_102_,X_INTRODUCED_103_,X_INTRODUCED_104_,X_INTRODUCED_105_,X_INTRODUCED_106_,X_INTRODUCED_107_,X_INTRODUCED_108_,X_INTRODUCED_109_,X_INTRODUCED_110_,X_INTRODUCED_111_,X_INTRODUCED_112_,X_INTRODUCED_113_,X_INTRODUCED_114_,X_INTRODUCED_115_,X_INTRODUCED_116_,X_INTRODUCED_117_,X_INTRODUCED_118_,X_INTRODUCED_119_,X_INTRODUCED_120_,X_INTRODUCED_121_,X_INTRODUCED_122_,X_INTRODUCED_123_,X_INTRODUCED_124_,X_INTRODUCED_125_,X_INTRODUCED_126_,X_INTRODUCED_127_,X_INTRODUCED_128_,X_INTRODUCED_129_,X_INTRODUCED_130_,X_INTRODUCED_131_,X_INTRODUCED_132_,X_INTRODUCED_133_,X_INTRODUCED_134_,X_INTRODUCED_135_,X_INTRODUCED_136_,X_INTRODUCED_137_,X_INTRODUCED_138_,X_INTRODUCED_139_,X_INTRODUCED_140_,X_INTRODUCED_141_,X_INTRODUCED_142_,X_INTRODUCED_143_,X_INTRODUCED_144_,X_INTRODUCED_145_,X_INTRODUCED_146_,X_INTRODUCED_147_,X_INTRODUCED_148_,X_INTRODUCED_149_,X_INTRODUCED_150_,X_INTRODUCED_151_,X_INTRODUCED_152_,X_INTRODUCED_153_,X_INTRODUCED_154_,X_INTRODUCED_155_,X_INTRODUCED_156_,X_INTRODUCED_157_,X_INTRODUCED_158_,X_INTRODUCED_159_,X_INTRODUCED_160_,X_INTRODUCED_161_,X_INTRODUCED_162_,X_INTRODUCED_163_,X_INTRODUCED_164_,X_INTRODUCED_165_,X_INTRODUCED_166_,X_INTRODUCED_167_,X_INTRODUCED_168_,X_INTRODUCED_169_,X_INTRODUCED_170_,X_INTRODUCED_171_,X_INTRODUCED_172_,X_INTRODUCED_173_,X_INTRODUCED_174_,X_INTRODUCED_175_,X_INTRODUCED_176_,X_INTRODUCED_177_,X_INTRODUCED_178_,X_INTRODUCED_179_,X_INTRODUCED_180_,X_INTRODUCED_181_,X_INTRODUCED_182_,X_INTRODUCED_183_,X_INTRODUCED_184_,X_INTRODUCED_185_,X_INTRODUCED_186_,X_INTRODUCED_187_,X_INTRODUCED_188_,X_INTRODUCED_189_,X_INTRODUCED_190_,X_INTRODUCED_191_,X_INTRODUCED_192_,X_INTRODUCED_193_,X_INTRODUCED_194_,X_INTRODUCED_195_,X_INTRODUCED_196_,X_INTRODUCED_197_,X_INTRODUCED_198_,X_INTRODUCED_199_,X_INTRODUCED_200_,X_INTRODUCED_201_,X_INTRODUCED_202_,X_INTRODUCED_203_,X_INTRODUCED_204_,X_INTRODUCED_205_,X_INTRODUCED_206_,X_INTRODUCED_207_,X_INTRODUCED_208_,X_INTRODUCED_209_,X_INTRODUCED_210_,X_INTRODUCED_211_,X_INTRODUCED_212_,X_INTRODUCED_213_,X_INTRODUCED_214_,X_INTRODUCED_215_,X_INTRODUCED_216_,X_INTRODUCED_217_,X_INTRODUCED_218_,X_INTRODUCED_219_,X_INTRODUCED_220_,X_INTRODUCED_221_,X_INTRODUCED_222_,X_INTRODUCED_223_,X_INTRODUCED_224_,X_INTRODUCED_225_,X_INTRODUCED_226_,X_INTRODUCED_227_,X_INTRODUCED_228_,X_INTRODUCED_229_,X_INTRODUCED_230_,X_INTRODUCED_231_,X_INTRODUCED_232_,X_INTRODUCED_233_,X_INTRODUCED_234_,X_INTRODUCED_235_,X_INTRODUCED_236_,X_INTRODUCED_237_,X_INTRODUCED_238_,X_INTRODUCED_239_,X_INTRODUCED_240_,X_INTRODUCED_241_,X_INTRODUCED_242_,X_INTRODUCED_243_,X_INTRODUCED_244_,X_INTRODUCED_245_,X_INTRODUCED_246_,X_INTRODUCED_247_,X_INTRODUCED_248_,X_INTRODUCED_249_,X_INTRODUCED_250_,X_INTRODUCED_251_,X_INTRODUCED_252_,X_INTRODUCED_253_,X_INTRODUCED_254_,X_INTRODUCED_255_,X_INTRODUCED_256_,X_INTRODUCED_257_,X_INTRODUCED_258_,X_INTRODUCED_259_,X_INTRODUCED_260_,X_INTRODUCED_261_,X_INTRODUCED_262_,X_INTRODUCED_263_,X_INTRODUCED_264_,X_INTRODUCED_265_,X_INTRODUCED_266_,X_INTRODUCED_267_,X_INTRODUCED_268_,X_INTRODUCED_269_,X_INTRODUCED_270_,X_INTRODUCED_271_,X_INTRODUCED_272_,X_INTRODUCED_273_,X_INTRODUCED_274_,X_INTRODUCED_275_,X_INTRODUCED_276_,X_INTRODUCED_277_,X_INTRODUCED_278_,X_INTRODUCED_279_,X_INTRODUCED_280_,X_INTRODUCED_281_,X_INTRODUCED_282_,X_INTRODUCED_283_,X_INTRODUCED_284_,X_INTRODUCED_285_,X_INTRODUCED_286_,X_INTRODUCED_287_,X_INTRODUCED_288_,X_INTRODUCED_289_,X_INTRODUCED_290_,X_INTRODUCED_291_,X_INTRODUCED_292_,X_INTRODUCED_293_,X_INTRODUCED_294_,X_INTRODUCED_295_,X_INTRODUCED_296_,X_INTRODUCED_297_,X_INTRODUCED_298_,X_INTRODUCED_299_,X_INTRODUCED_300_,X_INTRODUCED_301_,X_INTRODUCED_302_,X_INTRODUCED_303_,X_INTRODUCED_304_,X_INTRODUCED_305_,X_INTRODUCED_306_,X_INTRODUCED_307_,X_INTRODUCED_308_,X_INTRODUCED_309_,X_INTRODUCED_310_,X_INTRODUCED_311_,X_INTRODUCED_312_,X_INTRODUCED_313_,X_INTRODUCED_314_,X_INTRODUCED_315_,X_INTRODUCED_316_,X_INTRODUCED_317_,X_INTRODUCED_318_,X_INTRODUCED_319_,X_INTRODUCED_320_,X_INTRODUCED_321_,X_INTRODUCED_322_,X_INTRODUCED_323_,X_INTRODUCED_324_,X_INTRODUCED_325_,X_INTRODUCED_326_,X_INTRODUCED_327_,X_INTRODUCED_328_,X_INTRODUCED_329_,X_INTRODUCED_330_,X_INTRODUCED_331_,X_INTRODUCED_332_,X_INTRODUCED_333_,X_INTRODUCED_334_,X_INTRODUCED_335_,X_INTRODUCED_336_,X_INTRODUCED_337_,X_INTRODUCED_338_,X_INTRODUCED_339_,X_INTRODUCED_340_,X_INTRODUCED_341_,X_INTRODUCED_342_,X_INTRODUCED_343_,X_INTRODUCED_344_,X_INTRODUCED_345_,X_INTRODUCED_346_,X_INTRODUCED_347_,X_INTRODUCED_348_,X_INTRODUCED_349_,X_INTRODUCED_350_,X_INTRODUCED_351_,X_INTRODUCED_352_,X_INTRODUCED_353_,X_INTRODUCED_354_,X_INTRODUCED_355_,X_INTRODUCED_356_,X_INTRODUCED_357_,X_INTRODUCED_358_,X_INTRODUCED_359_,X_INTRODUCED_360_,X_INTRODUCED_361_,X_INTRODUCED_362_,X_INTRODUCED_363_,X_INTRODUCED_364_,X_INTRODUCED_365_,X_INTRODUCED_366_,X_INTRODUCED_367_,X_INTRODUCED_368_,X_INTRODUCED_369_,X_INTRODUCED_370_,X_INTRODUCED_371_,X_INTRODUCED_372_,X_INTRODUCED_373_,X_INTRODUCED_374_,X_INTRODUCED_375_,X_INTRODUCED_376_,X_INTRODUCED_377_,X_INTRODUCED_378_,X_INTRODUCED_379_,X_INTRODUCED_380_,X_INTRODUCED_381_,X_INTRODUCED_382_,X_INTRODUCED_383_,X_INTRODUCED_384_,X_INTRODUCED_385_,X_INTRODUCED_386_,X_INTRODUCED_387_,X_INTRODUCED_388_,X_INTRODUCED_389_,X_INTRODUCED_390_,X_INTRODUCED_391_,X_INTRODUCED_392_,X_INTRODUCED_393_,X_INTRODUCED_394_,X_INTRODUCED_395_,X_INTRODUCED_396_,X_INTRODUCED_397_,X_INTRODUCED_398_,X_INTRODUCED_399_,X_INTRODUCED_400_,X_INTRODUCED_401_,X_INTRODUCED_402_,X_INTRODUCED_403_,X_INTRODUCED_404_,X_INTRODUCED_405_,X_INTRODUCED_406_,X_INTRODUCED_407_,X_INTRODUCED_408_,X_INTRODUCED_409_,X_INTRODUCED_410_,X_INTRODUCED_411_,X_INTRODUCED_412_,X_INTRODUCED_413_,X_INTRODUCED_414_,X_INTRODUCED_415_,X_INTRODUCED_416_,X_INTRODUCED_417_,X_INTRODUCED_418_,X_INTRODUCED_419_,X_INTRODUCED_420_,X_INTRODUCED_421_,X_INTRODUCED_422_,X_INTRODUCED_423_,X_INTRODUCED_424_,X_INTRODUCED_425_,X_INTRODUCED_426_,X_INTRODUCED_427_,X_INTRODUCED_428_,X_INTRODUCED_429_,X_INTRODUCED_430_,X_INTRODUCED_431_,X_INTRODUCED_432_,X_INTRODUCED_433_,X_INTRODUCED_434_,X_INTRODUCED_435_,X_INTRODUCED_436_,X_INTRODUCED_437_,X_INTRODUCED_438_,X_INTRODUCED_439_,X_INTRODUCED_440_,X_INTRODUCED_441_,X_INTRODUCED_442_,X_INTRODUCED_443_,X_INTRODUCED_444_,X_INTRODUCED_445_,X_INTRODUCED_446_,X_INTRODUCED_447_,X_INTRODUCED_448_,X_INTRODUCED_449_,X_INTRODUCED_450_,X_INTRODUCED_451_,X_INTRODUCED_452_,X_INTRODUCED_453_,X_INTRODUCED_454_,X_INTRODUCED_455_,X_INTRODUCED_456_,X_INTRODUCED_457_,X_INTRODUCED_458_,X_INTRODUCED_459_,X_INTRODUCED_460_,X_INTRODUCED_461_,X_INTRODUCED_462_,X_INTRODUCED_463_,X_INTRODUCED_464_,X_INTRODUCED_465_];
array [1..15] of var int: X_INTRODUCED_483_ ::var_is_introduced  = [X_INTRODUCED_16_,X_INTRODUCED_17_,X_INTRODUCED_18_,X_INTRODUCED_19_,X_INTRODUCED_20_,X_INTRODUCED_21_,X_INTRODUCED_22_,X_INTRODUCED_23_,X_INTRODUCED_24_,X_INTRODUCED_25_,X_INTRODUCED_26_,X_INTRODUCED_27_,X_INTRODUCED_28_,X_INTRODUCED_29_,Objective];
constraint int_lin_le(X_INTRODUCED_469_,[X_INTRODUCED_16_,X_INTRODUCED_17_],-21);
constraint int_lin_le(X_INTRODUCED_469_,[X_INTRODUCED_17_,X_INTRODUCED_18_],-55);
constraint int_lin_le(X_INTRODUCED_469_,[X_INTRODUCED_18_,X_INTRODUCED_19_],-71);
constraint int_lin_le(X_INTRODUCED_469_,[X_INTRODUCED_19_,X_INTRODUCED_20_],-98);
constraint int_lin_le(X_INTRODUCED_469_,[X_INTRODUCED_20_,X_INTRODUCED_21_],-12);
constraint int_lin_le(X_INTRODUCED_469_,[X_INTRODUCED_21_,X_INTRODUCED_22_],-34);
constraint int_lin_le(X_INTRODUCED_469_,[X_INTRODUCED_22_,X_INTRODUCED_23_],-16);
constraint int_lin_le(X_INTRODUCED_469_,[X_INTRODUCED_23_,X_INTRODUCED_24_],-21);
constraint int_lin_le(X_INTRODUCED_469_,[X_INTRODUCED_24_,X_INTRODUCED_25_],-53);
constraint int_lin_le(X_INTRODUCED_469_,[X_INTRODUCED_25_,X_INTRODUCED_26_],-26);
constraint int_lin_le(X_INTRODUCED_469_,[X_INTRODUCED_26_,X_INTRODUCED_27_],-52);
constraint int_lin_le(X_INTRODUCED_469_,[X_INTRODUCED_27_,X_INTRODUCED_28_],-95);
constraint int_lin_le(X_INTRODUCED_469_,[X_INTRODUCED_28_,X_INTRODUCED_29_],-31);
solve :: int_search(X_INTRODUCED_483_,smallest,indomain_min,complete) minimize Objective;
